Route #1: 1 46 47 18 41 40 19 42 44 17 37 10 1 
Route #2: 1 22 35 36 28 26 43 24 14 6 48 27 11 1 
Route #3: 1 1 32 25 23 8 31 20 2 1 
Route #4: 1 3 29 21 34 30 50 16 9 38 12 1 
Route #5: 1 7 13 4 15 45 33 39 49 5 1 

Cost 755.762
Time 0.5363


 * Another infos *

 Iterations: 51 Time: 0.5363 sec - 0.0089 min - 0.0001 horas
0.0000 h 0.0089 min
Problem dimension: 51
